c description: Tseitin formula on , with even charge
c generator: CNFgen (0.9.0)
c copyright: (C) 2012-2020 Massimo Lauria <massimo.lauria@uniroma1.it>
c url: https://massimolauria.net/cnfgen
c
p cnf 40 240
1 2 3 4 -5 0
1 2 3 -4 5 0
1 2 -3 4 5 0
1 2 -3 -4 -5 0
1 -2 3 4 5 0
1 -2 3 -4 -5 0
1 -2 -3 4 -5 0
1 -2 -3 -4 5 0
-1 2 3 4 5 0
-1 2 3 -4 -5 0
-1 2 -3 4 -5 0
-1 2 -3 -4 5 0
-1 -2 3 4 -5 0
-1 -2 3 -4 5 0
-1 -2 -3 4 5 0
-1 -2 -3 -4 -5 0
6 -7 0
-6 7 0
8 9 -10 0
8 -9 10 0
-8 9 10 0
-8 -9 -10 0
11 12 13 14 15 -16 0
11 12 13 14 -15 16 0
11 12 13 -14 15 16 0
11 12 13 -14 -15 -16 0
11 12 -13 14 15 16 0
11 12 -13 14 -15 -16 0
11 12 -13 -14 15 -16 0
11 12 -13 -14 -15 16 0
11 -12 13 14 15 16 0
11 -12 13 14 -15 -16 0
11 -12 13 -14 15 -16 0
11 -12 13 -14 -15 16 0
11 -12 -13 14 15 -16 0
11 -12 -13 14 -15 16 0
11 -12 -13 -14 15 16 0
11 -12 -13 -14 -15 -16 0
-11 12 13 14 15 16 0
-11 12 13 14 -15 -16 0
-11 12 13 -14 15 -16 0
-11 12 13 -14 -15 16 0
-11 12 -13 14 15 -16 0
-11 12 -13 14 -15 16 0
-11 12 -13 -14 15 16 0
-11 12 -13 -14 -15 -16 0
-11 -12 13 14 15 -16 0
-11 -12 13 14 -15 16 0
-11 -12 13 -14 15 16 0
-11 -12 13 -14 -15 -16 0
-11 -12 -13 14 15 16 0
-11 -12 -13 14 -15 -16 0
-11 -12 -13 -14 15 -16 0
-11 -12 -13 -14 -15 16 0
11 17 18 19 20 -21 0
11 17 18 19 -20 21 0
11 17 18 -19 20 21 0
11 17 18 -19 -20 -21 0
11 17 -18 19 20 21 0
11 17 -18 19 -20 -21 0
11 17 -18 -19 20 -21 0
11 17 -18 -19 -20 21 0
11 -17 18 19 20 21 0
11 -17 18 19 -20 -21 0
11 -17 18 -19 20 -21 0
11 -17 18 -19 -20 21 0
11 -17 -18 19 20 -21 0
11 -17 -18 19 -20 21 0
11 -17 -18 -19 20 21 0
11 -17 -18 -19 -20 -21 0
-11 17 18 19 20 21 0
-11 17 18 19 -20 -21 0
-11 17 18 -19 20 -21 0
-11 17 18 -19 -20 21 0
-11 17 -18 19 20 -21 0
-11 17 -18 19 -20 21 0
-11 17 -18 -19 20 21 0
-11 17 -18 -19 -20 -21 0
-11 -17 18 19 20 -21 0
-11 -17 18 19 -20 21 0
-11 -17 18 -19 20 21 0
-11 -17 18 -19 -20 -21 0
-11 -17 -18 19 20 21 0
-11 -17 -18 19 -20 -21 0
-11 -17 -18 -19 20 -21 0
-11 -17 -18 -19 -20 21 0
1 22 23 -24 0
1 22 -23 24 0
1 -22 23 24 0
1 -22 -23 -24 0
-1 22 23 24 0
-1 22 -23 -24 0
-1 -22 23 -24 0
-1 -22 -23 24 0
17 25 26 -27 0
17 25 -26 27 0
17 -25 26 27 0
17 -25 -26 -27 0
-17 25 26 27 0
-17 25 -26 -27 0
-17 -25 26 -27 0
-17 -25 -26 27 0
18 28 29 -30 0
18 28 -29 30 0
18 -28 29 30 0
18 -28 -29 -30 0
-18 28 29 30 0
-18 28 -29 -30 0
-18 -28 29 -30 0
-18 -28 -29 30 0
28 31 32 -33 0
28 31 -32 33 0
28 -31 32 33 0
28 -31 -32 -33 0
-28 31 32 33 0
-28 31 -32 -33 0
-28 -31 32 -33 0
-28 -31 -32 33 0
34 -35 0
-34 35 0
12 19 31 34 -36 0
12 19 31 -34 36 0
12 19 -31 34 36 0
12 19 -31 -34 -36 0
12 -19 31 34 36 0
12 -19 31 -34 -36 0
12 -19 -31 34 -36 0
12 -19 -31 -34 36 0
-12 19 31 34 36 0
-12 19 31 -34 -36 0
-12 19 -31 34 -36 0
-12 19 -31 -34 36 0
-12 -19 31 34 -36 0
-12 -19 31 -34 36 0
-12 -19 -31 34 36 0
-12 -19 -31 -34 -36 0
2 6 22 25 -37 0
2 6 22 -25 37 0
2 6 -22 25 37 0
2 6 -22 -25 -37 0
2 -6 22 25 37 0
2 -6 22 -25 -37 0
2 -6 -22 25 -37 0
2 -6 -22 -25 37 0
-2 6 22 25 37 0
-2 6 22 -25 -37 0
-2 6 -22 25 -37 0
-2 6 -22 -25 37 0
-2 -6 22 25 -37 0
-2 -6 22 -25 37 0
-2 -6 -22 25 37 0
-2 -6 -22 -25 -37 0
3 8 13 23 -26 0
3 8 13 -23 26 0
3 8 -13 23 26 0
3 8 -13 -23 -26 0
3 -8 13 23 26 0
3 -8 13 -23 -26 0
3 -8 -13 23 -26 0
3 -8 -13 -23 26 0
-3 8 13 23 26 0
-3 8 13 -23 -26 0
-3 8 -13 23 -26 0
-3 8 -13 -23 26 0
-3 -8 13 23 -26 0
-3 -8 13 -23 26 0
-3 -8 -13 23 26 0
-3 -8 -13 -23 -26 0
14 20 -38 0
14 -20 38 0
-14 20 38 0
-14 -20 -38 0
4 7 36 -39 0
4 7 -36 39 0
4 -7 36 39 0
4 -7 -36 -39 0
-4 7 36 39 0
-4 7 -36 -39 0
-4 -7 36 -39 0
-4 -7 -36 39 0
5 15 29 38 -40 0
5 15 29 -38 40 0
5 15 -29 38 40 0
5 15 -29 -38 -40 0
5 -15 29 38 40 0
5 -15 29 -38 -40 0
5 -15 -29 38 -40 0
5 -15 -29 -38 40 0
-5 15 29 38 40 0
-5 15 29 -38 -40 0
-5 15 -29 38 -40 0
-5 15 -29 -38 40 0
-5 -15 29 38 -40 0
-5 -15 29 -38 40 0
-5 -15 -29 38 40 0
-5 -15 -29 -38 -40 0
9 21 32 35 39 -40 0
9 21 32 35 -39 40 0
9 21 32 -35 39 40 0
9 21 32 -35 -39 -40 0
9 21 -32 35 39 40 0
9 21 -32 35 -39 -40 0
9 21 -32 -35 39 -40 0
9 21 -32 -35 -39 40 0
9 -21 32 35 39 40 0
9 -21 32 35 -39 -40 0
9 -21 32 -35 39 -40 0
9 -21 32 -35 -39 40 0
9 -21 -32 35 39 -40 0
9 -21 -32 35 -39 40 0
9 -21 -32 -35 39 40 0
9 -21 -32 -35 -39 -40 0
-9 21 32 35 39 40 0
-9 21 32 35 -39 -40 0
-9 21 32 -35 39 -40 0
-9 21 32 -35 -39 40 0
-9 21 -32 35 39 -40 0
-9 21 -32 35 -39 40 0
-9 21 -32 -35 39 40 0
-9 21 -32 -35 -39 -40 0
-9 -21 32 35 39 -40 0
-9 -21 32 35 -39 40 0
-9 -21 32 -35 39 40 0
-9 -21 32 -35 -39 -40 0
-9 -21 -32 35 39 40 0
-9 -21 -32 35 -39 -40 0
-9 -21 -32 -35 39 -40 0
-9 -21 -32 -35 -39 40 0
10 24 -33 0
10 -24 33 0
-10 24 33 0
-10 -24 -33 0
16 27 30 -37 0
16 27 -30 37 0
16 -27 30 37 0
16 -27 -30 -37 0
-16 27 30 37 0
-16 27 -30 -37 0
-16 -27 30 -37 0
-16 -27 -30 37 0